ACTORES={Julia, Juan, Carlos, Ana};
Escenas= [|  1, 1, 0, 0, 0, 0, 10|
  0, 1, 1, 1, 0, 1, 20|
  0, 0, 0, 0, 1, 1, 15|
  1, 1, 0, 0, 1, 1, 13|];
Duracion = [2, 1, 1, 1, 3, 4];
Disponibilidad = [|Julia, 5
|Juan, 8
|Carlos, 0
|Ana, 10|];
Evitar = [|Julia, Juan
|Juan, Carlos|];
